100
150
100
99
99
99
98
98
97
95
95
95
94
94
93
93
93
90
89
87
87
87
87
86
85
85
84
84
83
83
82
81
81
80
79
79
78
74
74
73
72
71
71
70
70
69
68
67
67
67
66
64
62
62
61
61
59
59
58
56
55
54
52
52
52
52
51
50
50
48
48
48
47
47
42
41
39
38
36
34
34
34
34
33
33
32
32
32
31
31
30
29
29
27
27
26
26
25
24
23
20
20
